;; sequence(s): A237274
;; terms: 2 1 4 5 1 4 2 7 7 5 7 7 2 4 1 5 4 1 2 1
;; small program: (loop(y - x, x * x, 1) mod (1 + (2 * (2 + 2)))) + 1
;; fast program: (2 + (((x * x) div 2) - (x mod 2))) mod (1 + (2 * (2 + 2)))
(set-logic UFNIA)
(define-fun divf ((a Int) (b Int)) Int (ite (< 0 b) (div a b) (div (- a) (- b))))
(define-fun modf ((a Int) (b Int)) Int (ite (< 0 b) (mod a b) (- (mod (- a) (- b)))))
(declare-fun f0 (Int Int) Int)
(declare-fun g0 (Int) Int)
(declare-fun h0 () Int)
(declare-fun u0 (Int Int) Int)
(declare-fun v0 (Int) Int)
(declare-fun small (Int) Int)
(declare-fun fast (Int) Int)
(assert (forall ((x Int) (y Int)) (= (f0 x y) (- y x))))
(assert (forall ((x Int)) (= (g0 x) (* x x))))
(assert (= h0 1))
(assert (forall ((x Int) (y Int)) (= (u0 x y) (ite (<= x 0) y (f0 (u0 (- x 1) y) x)))))
(assert (forall ((x Int)) (= (v0 x) (u0 (g0 x) h0))))
(assert (forall ((x Int)) (= (small x) (+ (modf (v0 x) (+ 1 (* 2 (+ 2 2)))) 1))))
(assert (forall ((x Int)) (= (fast x) (modf (+ 2 (- (divf (* x x) 2) (modf x 2))) (+ 1 (* 2 (+ 2 2)))))))
(assert (exists ((c Int)) (and (>= c 0) (not (= (small c) (fast c))))))
(check-sat)
